* ENCODING=ISO-8859-1
NAME          CPLEX
ROWS
 N  obj1    
 G  c1      
 G  c2      
 G  c3      
 G  c4      
 G  c5      
 G  c6      
 G  c7      
 G  c8      
 G  c9      
 G  c10     
 G  c11     
 G  c12     
 G  c13     
 G  c14     
 G  c15     
 G  c16     
 G  c17     
 G  c18     
 G  c19     
 G  c20     
 G  c21     
 G  c22     
 G  c23     
 G  c24     
 G  c25     
 G  c26     
 G  c27     
 G  c28     
 G  c29     
 G  c30     
 G  c31     
 G  c32     
 G  c33     
 G  c34     
 G  c35     
 G  c36     
 G  c37     
 G  c38     
 G  c39     
 G  c40     
 G  c41     
 G  c42     
 G  c43     
 G  c44     
 G  c45     
 G  c46     
 G  c47     
 G  c48     
 G  c49     
 G  c50     
 G  c51     
 G  c52     
 G  c53     
 G  c54     
 G  c55     
 G  c56     
 G  c57     
 G  c58     
 G  c59     
 G  c60     
 G  c61     
 G  c62     
 G  c63     
 G  c64     
 G  c65     
 G  c66     
 G  c67     
 G  c68     
 G  c69     
 G  c70     
COLUMNS
    MARK0000  'MARKER'                 'INTORG'
    x1        obj1                            1
    x1        c28                           172
    x1        c44                           554
    x1        c55                           149
    x1        c58                           992
    x2        obj1                            1
    x2        c4                            301
    x2        c23                           713
    x2        c47                           180
    x2        c58                           798
    x2        c66                           219
    x2        c68                           390
    x2        c70                           564
    x3        obj1                            1
    x3        c35                           193
    x3        c39                           878
    x3        c50                           447
    x3        c61                           515
    x4        obj1                            1
    x4        c5                            275
    x4        c9                            722
    x4        c24                           137
    x4        c27                           490
    x4        c55                           976
    x5        obj1                            1
    x5        c3                            843
    x5        c8                            543
    x5        c18                           183
    x5        c23                           155
    x5        c37                           836
    x6        obj1                            1
    x6        c3                            618
    x6        c25                           209
    x6        c27                           586
    x6        c37                           418
    x6        c43                           136
    x6        c49                           955
    x7        obj1                            1
    x7        c9                            945
    x7        c23                           552
    x7        c25                           946
    x7        c32                           723
    x7        c33                           858
    x7        c40                           949
    x8        obj1                            1
    x8        c8                            539
    x8        c15                           211
    x8        c21                           931
    x8        c36                           686
    x8        c40                           456
    x8        c48                           580
    x8        c51                           125
    x8        c53                           122
    x8        c62                           743
    x8        c64                           439
    x9        obj1                            1
    x9        c5                            392
    x9        c6                            695
    x9        c18                           509
    x9        c22                           585
    x9        c36                           193
    x9        c46                           894
    x10       obj1                            1
    x10       c22                           366
    x10       c24                           758
    x10       c33                           285
    x10       c39                           611
    x11       obj1                            1
    x11       c4                            988
    x11       c11                           830
    x11       c19                           483
    x11       c20                           669
    x11       c27                           277
    x11       c32                           698
    x11       c33                           791
    x11       c48                           614
    x11       c54                           681
    x11       c62                           868
    x11       c65                           639
    x12       obj1                            1
    x12       c2                            110
    x12       c7                            952
    x12       c8                            451
    x12       c10                           709
    x12       c21                           335
    x12       c24                           442
    x12       c25                           741
    x12       c34                           943
    x12       c39                           874
    x12       c45                           445
    x12       c46                           492
    x12       c50                           686
    x12       c54                           343
    x12       c56                           315
    x13       obj1                            1
    x13       c11                           605
    x13       c25                           436
    x13       c28                           896
    x13       c35                           308
    x13       c43                           105
    x13       c69                           725
    x14       obj1                            1
    x14       c3                            329
    x14       c12                           385
    x14       c19                           305
    x14       c26                           385
    x14       c37                           376
    x14       c56                           584
    x15       obj1                            1
    x15       c9                            316
    x15       c20                           262
    x15       c28                           513
    x15       c56                           456
    x16       obj1                            1
    x16       c6                            583
    x16       c7                            937
    x16       c11                           535
    x16       c13                           451
    x16       c38                           252
    x16       c50                           183
    x16       c57                           293
    x16       c65                           695
    x16       c70                           134
    x17       obj1                            1
    x17       c13                           904
    x17       c26                           591
    x17       c34                           313
    x17       c38                           951
    x17       c53                           124
    x17       c57                           830
    x18       obj1                            1
    x18       c6                            669
    x18       c13                           429
    x18       c14                           207
    x18       c21                           545
    x18       c23                           804
    x18       c43                           701
    x18       c52                           182
    x18       c56                           387
    x18       c65                           994
    x18       c68                           596
    x19       obj1                            1
    x19       c26                           977
    x19       c42                           439
    x19       c46                           371
    x19       c47                           965
    x19       c49                           988
    x19       c60                           491
    x20       obj1                            1
    x20       c10                           382
    x20       c18                           419
    x20       c48                           269
    x20       c49                           791
    x20       c57                           902
    x20       c59                           854
    x20       c69                           808
    x21       obj1                            1
    x21       c7                            929
    x21       c9                            121
    x21       c21                           169
    x21       c31                           397
    x21       c39                           953
    x21       c44                           946
    x21       c55                           139
    x21       c57                           455
    x21       c61                           486
    x21       c66                           318
    x21       c67                           879
    x22       obj1                            1
    x22       c9                            408
    x22       c11                           830
    x22       c17                           354
    x22       c24                           147
    x22       c49                           408
    x22       c50                           213
    x22       c60                           258
    x22       c61                           847
    x22       c68                           606
    x23       obj1                            1
    x23       c7                            476
    x23       c12                           312
    x23       c17                           323
    x23       c27                           481
    x23       c36                           880
    x23       c40                           890
    x23       c42                           373
    x23       c50                           529
    x23       c61                           514
    x23       c68                           186
    x24       obj1                            1
    x24       c1                            613
    x24       c18                           875
    x24       c23                           897
    x24       c24                           935
    x24       c27                           310
    x24       c45                           230
    x25       obj1                            1
    x25       c5                            792
    x25       c25                           109
    x25       c32                           293
    x25       c57                           192
    x25       c59                           428
    x25       c68                           941
    x25       c69                           880
    x26       obj1                            1
    x26       c3                            398
    x26       c10                           871
    x26       c41                           963
    x26       c44                           226
    x26       c45                           934
    x26       c46                           982
    x26       c60                           143
    x27       obj1                            1
    x27       c24                           130
    x27       c31                           840
    x27       c46                           567
    x27       c65                           847
    x27       c66                           322
    x28       obj1                            1
    x28       c12                           941
    x28       c16                           208
    x28       c17                           899
    x28       c22                           651
    x28       c26                           334
    x28       c27                           598
    x28       c29                           869
    x28       c31                           246
    x28       c43                           449
    x28       c44                           206
    x28       c67                           628
    x29       obj1                            1
    x29       c5                            704
    x29       c18                           249
    x29       c26                           926
    x29       c45                           664
    x29       c46                           647
    x29       c52                           163
    x30       obj1                            1
    x30       c2                            176
    x30       c20                           555
    x30       c23                           255
    x31       obj1                            1
    x31       c4                            806
    x31       c8                            523
    x31       c9                            512
    x31       c12                           941
    x31       c19                           721
    x31       c44                           658
    x31       c49                           616
    x31       c54                           191
    x31       c60                           321
    x32       obj1                            1
    x32       c36                           850
    x32       c40                           298
    x32       c43                           532
    x32       c59                           714
    x32       c61                           592
    x33       obj1                            1
    x33       c1                            380
    x33       c6                            382
    x33       c25                           255
    x33       c35                           585
    x33       c62                           559
    x33       c67                           393
    x34       obj1                            1
    x34       c6                            901
    x34       c13                           664
    x34       c32                           618
    x34       c38                           814
    x34       c45                           817
    x34       c54                           375
    x34       c57                           732
    x34       c68                           315
    x35       obj1                            1
    x35       c3                            269
    x35       c11                           872
    x35       c12                           286
    x35       c19                           244
    x35       c27                           283
    x35       c51                           569
    x35       c60                           844
    x35       c63                           822
    x36       obj1                            1
    x36       c5                            523
    x36       c11                           742
    x36       c27                           599
    x36       c40                           464
    x36       c49                           801
    x36       c52                           902
    x36       c69                           872
    x37       obj1                            1
    x37       c4                            668
    x37       c8                            768
    x37       c33                           741
    x37       c34                           395
    x37       c65                           284
    x37       c69                           257
    x38       obj1                            1
    x38       c18                           759
    x38       c20                           263
    x38       c33                           977
    x38       c34                           187
    x38       c53                           750
    x38       c57                           530
    x38       c60                           117
    x38       c61                           248
    x38       c67                           761
    x38       c68                           426
    x39       obj1                            1
    x39       c7                            481
    x39       c14                           184
    x39       c33                           697
    x39       c36                           159
    x39       c37                           752
    x40       obj1                            1
    x40       c4                            933
    x40       c14                           386
    x40       c18                           205
    x40       c59                           556
    x40       c68                           620
    x41       obj1                            1
    x41       c2                            815
    x41       c7                            299
    x41       c57                           218
    x41       c61                           615
    x42       obj1                            1
    x42       c5                            865
    x42       c10                           284
    x42       c29                           423
    x42       c36                           920
    x42       c37                           195
    x42       c44                           838
    x43       obj1                            1
    x43       c1                            587
    x43       c6                            236
    x43       c15                           616
    x43       c31                           684
    x43       c33                           780
    x43       c36                           183
    x43       c43                           973
    x43       c47                           542
    x43       c68                           402
    x44       obj1                            1
    x44       c2                            477
    x44       c4                            623
    x44       c7                            857
    x44       c9                            989
    x44       c15                           972
    x44       c28                           769
    x44       c35                           205
    x44       c46                           131
    x45       obj1                            1
    x45       c13                           668
    x45       c23                           946
    x45       c42                           591
    x45       c57                           848
    x45       c58                           850
    x45       c64                           399
    x45       c67                           216
    x46       obj1                            1
    x46       c11                           347
    x46       c12                           139
    x46       c22                           649
    x46       c34                           862
    x46       c45                           553
    x46       c53                           693
    x46       c57                           436
    x47       obj1                            1
    x47       c1                            642
    x47       c6                            371
    x47       c20                           932
    x47       c31                           726
    x47       c34                           416
    x47       c51                           210
    x47       c62                           694
    x47       c69                           167
    x48       obj1                            1
    x48       c11                           808
    x48       c20                           441
    x48       c28                           955
    x48       c43                           479
    x48       c47                           925
    x48       c52                           585
    x49       obj1                            1
    x49       c40                           861
    x49       c46                           138
    x49       c51                           794
    x50       obj1                            1
    x50       c23                           950
    x50       c32                           682
    x50       c50                           812
    x50       c63                           792
    x51       obj1                            1
    x51       c16                           374
    x51       c18                           593
    x51       c20                           548
    x51       c56                           117
    x51       c63                           707
    x51       c69                           524
    x52       obj1                            1
    x52       c4                            837
    x52       c13                           276
    x52       c24                           807
    x52       c32                           280
    x52       c41                           255
    x52       c45                           608
    x52       c54                           346
    x52       c56                           406
    x52       c67                           575
    x52       c68                           157
    x53       obj1                            1
    x53       c1                            148
    x53       c12                           557
    x53       c30                           997
    x53       c32                           786
    x53       c34                           719
    x53       c35                           697
    x53       c37                           939
    x53       c41                           280
    x53       c53                           369
    x53       c64                           205
    x53       c67                           697
    x54       obj1                            1
    x54       c5                            878
    x54       c12                           560
    x54       c13                           344
    x54       c20                           588
    x54       c30                           100
    x54       c41                           685
    x54       c66                           137
    x55       obj1                            1
    x55       c15                           174
    x55       c21                           863
    x55       c23                           145
    x55       c41                           528
    x55       c48                           323
    x55       c55                           114
    x55       c62                           912
    x55       c63                           544
    x55       c66                           510
    x56       obj1                            1
    x56       c6                            581
    x56       c33                           940
    x56       c39                           340
    x56       c51                           780
    x56       c65                           192
    x57       obj1                            1
    x57       c4                            927
    x57       c15                           639
    x57       c24                           253
    x57       c39                           161
    x57       c45                           733
    x58       obj1                            1
    x58       c1                            182
    x58       c4                            894
    x58       c8                            365
    x58       c11                           201
    x58       c13                           540
    x58       c15                           504
    x58       c16                           556
    x58       c50                           447
    x58       c56                           691
    x58       c60                           110
    x59       obj1                            1
    x59       c10                           840
    x59       c23                           224
    x59       c42                           879
    x59       c53                           209
    x60       obj1                            1
    x60       c27                           861
    x60       c31                           186
    x60       c61                           145
    x60       c69                           454
    x61       obj1                            1
    x61       c2                            543
    x61       c6                            896
    x61       c7                            384
    x61       c28                           800
    x61       c30                           946
    x61       c31                           411
    x61       c50                           871
    x61       c56                           743
    x61       c63                           924
    x62       obj1                            1
    x62       c13                           529
    x62       c39                           365
    x62       c41                           497
    x62       c46                           831
    x62       c52                           995
    x62       c65                           930
    x63       obj1                            1
    x63       c16                           478
    x63       c33                           155
    x63       c39                           637
    x63       c40                           128
    x63       c67                           173
    x64       obj1                            1
    x64       c14                           841
    x64       c28                           693
    x64       c38                           536
    x64       c39                           110
    x64       c40                           282
    x64       c51                           668
    x64       c55                           393
    x64       c58                           350
    x64       c59                           897
    x65       obj1                            1
    x65       c3                            573
    x65       c6                            476
    x65       c20                           284
    x65       c35                           470
    x65       c43                           333
    x65       c65                           179
    x65       c70                           528
    x66       obj1                            1
    x66       c3                            891
    x66       c7                            764
    x66       c13                           120
    x66       c15                           382
    x66       c28                           254
    x66       c29                           574
    x66       c34                           603
    x66       c37                           404
    x66       c43                           171
    x66       c44                           678
    x66       c49                           826
    x66       c59                           999
    x67       obj1                            1
    x67       c42                           706
    x67       c50                           218
    x67       c64                           435
    x67       c70                           966
    x68       obj1                            1
    x68       c12                           422
    x68       c27                           244
    x68       c29                           330
    x68       c30                           687
    x68       c32                           894
    x68       c34                           298
    x68       c42                           991
    x68       c44                           167
    x69       obj1                            1
    x69       c39                           223
    x69       c43                           734
    x69       c44                           155
    x69       c50                           775
    x69       c54                           681
    x70       obj1                            1
    x70       c3                            619
    x70       c4                            520
    x70       c5                            670
    x70       c10                           828
    x70       c17                           360
    x70       c26                           594
    x70       c32                           228
    x70       c36                           813
    x70       c61                           629
    MARK0001  'MARKER'                 'INTEND'
RHS
    rhs       c1                           1276
    rhs       c2                           1061
    rhs       c3                           2270
    rhs       c4                           3749
    rhs       c5                           2550
    rhs       c6                           2895
    rhs       c7                           3040
    rhs       c8                           1595
    rhs       c9                           2007
    rhs       c10                          1957
    rhs       c11                          2885
    rhs       c12                          2272
    rhs       c13                          2463
    rhs       c14                           809
    rhs       c15                          1749
    rhs       c16                           808
    rhs       c17                           968
    rhs       c18                          1896
    rhs       c19                           877
    rhs       c20                          2271
    rhs       c21                          1422
    rhs       c22                          1126
    rhs       c23                          2821
    rhs       c24                          1805
    rhs       c25                          1348
    rhs       c26                          1904
    rhs       c27                          2365
    rhs       c28                          2526
    rhs       c29                          1098
    rhs       c30                          1365
    rhs       c31                          1745
    rhs       c32                          2601
    rhs       c33                          3112
    rhs       c34                          2368
    rhs       c35                          1229
    rhs       c36                          2342
    rhs       c37                          1960
    rhs       c38                          1277
    rhs       c39                          2576
    rhs       c40                          2164
    rhs       c41                          1604
    rhs       c42                          1990
    rhs       c43                          2307
    rhs       c44                          2214
    rhs       c45                          2492
    rhs       c46                          2527
    rhs       c47                          1306
    rhs       c48                           893
    rhs       c49                          2693
    rhs       c50                          2591
    rhs       c51                          1573
    rhs       c52                          1414
    rhs       c53                          1134
    rhs       c54                          1309
    rhs       c55                           886
    rhs       c56                          1850
    rhs       c57                          2718
    rhs       c58                          1495
    rhs       c59                          2224
    rhs       c60                          1142
    rhs       c61                          2296
    rhs       c62                          1888
    rhs       c63                          1895
    rhs       c64                           739
    rhs       c65                          2380
    rhs       c66                           753
    rhs       c67                          2161
    rhs       c68                          2320
    rhs       c69                          2344
    rhs       c70                          1096
BOUNDS
 LI bnd       x1        0
 LI bnd       x2        0
 LI bnd       x3        0
 LI bnd       x4        0
 LI bnd       x5        0
 LI bnd       x6        0
 LI bnd       x7        0
 LI bnd       x8        0
 LI bnd       x9        0
 LI bnd       x10       0
 LI bnd       x11       0
 LI bnd       x12       0
 LI bnd       x13       0
 LI bnd       x14       0
 LI bnd       x15       0
 LI bnd       x16       0
 LI bnd       x17       0
 LI bnd       x18       0
 LI bnd       x19       0
 LI bnd       x20       0
 LI bnd       x21       0
 LI bnd       x22       0
 LI bnd       x23       0
 LI bnd       x24       0
 LI bnd       x25       0
 LI bnd       x26       0
 LI bnd       x27       0
 LI bnd       x28       0
 LI bnd       x29       0
 LI bnd       x30       0
 LI bnd       x31       0
 LI bnd       x32       0
 LI bnd       x33       0
 LI bnd       x34       0
 LI bnd       x35       0
 LI bnd       x36       0
 LI bnd       x37       0
 LI bnd       x38       0
 LI bnd       x39       0
 LI bnd       x40       0
 LI bnd       x41       0
 LI bnd       x42       0
 LI bnd       x43       0
 LI bnd       x44       0
 LI bnd       x45       0
 LI bnd       x46       0
 LI bnd       x47       0
 LI bnd       x48       0
 LI bnd       x49       0
 LI bnd       x50       0
 LI bnd       x51       0
 LI bnd       x52       0
 LI bnd       x53       0
 LI bnd       x54       0
 LI bnd       x55       0
 LI bnd       x56       0
 LI bnd       x57       0
 LI bnd       x58       0
 LI bnd       x59       0
 LI bnd       x60       0
 LI bnd       x61       0
 LI bnd       x62       0
 LI bnd       x63       0
 LI bnd       x64       0
 LI bnd       x65       0
 LI bnd       x66       0
 LI bnd       x67       0
 LI bnd       x68       0
 LI bnd       x69       0
 LI bnd       x70       0
ENDATA
